p cnf 21 9
e 1 0
a 2 3 0
e 4 0
a 5 0
e 6 7 0
a 8 9 10 0
e 11 0
a 12 0
e 13 14 15 0
a 16 17 18 0
e 19 20 0
a 21 0
14 -1 12 21 0
-3 21 -8 -20 12 0
-9 1 -8 18 -14 0
5 15 0
-1 6 -9 20 10 0
19 -17 16 -6 0
19 -17 18 3 14 0
21 -15 7 0
-20 9 -1 7 0
